# Solution for model problem_
# Objective value = 1.5128520739633933e+05
x(0_0) 0
x(0_1) 0
x(0_2) 0
x(0_3) 0
x(0_4) 0
x(0_5) 0
x(0_6) 1
x(0_7) 0
x(0_8) 0
x(0_9) 0
x(1_10) 1
x(1_11) 0
x(1_12) 0
x(1_13) 0
x(1_14) 0
x(1_15) 0
x(1_16) 0
x(1_17) 0
x(1_18) 0
x(1_19) 0
x(1_20) 0
x(1_21) 0
x(1_22) 0
x(1_23) 0
x(2_24) 0
x(2_25) 0
x(2_26) 0
x(2_27) 0
x(2_28) 0
x(2_29) 0
x(2_30) 0
x(2_31) 0
x(2_32) 0
x(2_33) 0
x(2_34) 0
x(2_35) 0
x(2_36) 0
x(2_37) 1
x(2_38) 0
x(2_39) 0
x(3_40) 0
x(3_41) 0
x(3_42) 0
x(3_43) 0
x(3_44) 0
x(3_45) 0
x(3_46) 0
x(3_47) 0
x(3_48) 0
x(3_49) 0
x(3_50) 0
x(3_51) 0
x(3_52) 0
x(3_53) 0
x(3_54) 1
x(4_55) 0
x(4_56) 1
x(4_57) 0
x(4_58) 0
x(4_59) 0
x(4_60) 0
x(4_61) 0
x(4_62) 0
x(4_63) 0
x(4_64) 0
x(4_65) 0
x(4_66) 0
x(4_67) 0
x(4_68) 0
x(4_69) 0
x(5_70) 0
x(5_71) 0
x(5_72) 1
x(5_73) 0
x(5_74) 0
x(5_75) 0
x(5_76) 0
x(5_77) 0
x(5_78) 0
x(5_79) 0
x(5_80) 0
x(5_81) 0
x(5_82) 0
x(5_83) 0
x(5_84) 0
x(5_85) 0
x(5_86) 0
x(5_87) 0
x(5_88) 0
x(5_89) 0
x(6_90) 0
x(6_91) 0
x(6_92) 0
x(6_93) 0
x(6_94) 0
x(6_95) 0
x(6_96) 0
x(6_97) 1
x(6_98) 0
x(6_99) 0
x(6_100) 0
x(6_101) 0
x(6_102) 0
x(6_103) 0
x(7_104) 0
x(7_105) 0
x(7_106) 0
x(7_107) 1
x(7_108) 0
x(7_109) 0
x(7_110) 0
x(7_111) 0
x(7_112) 0
x(7_113) 0
x(7_114) 0
x(7_115) 0
x(7_116) 0
x(7_117) 0
x(7_118) 0
x(7_119) 0
x(8_120) 1
x(8_121) 0
x(8_122) 0
x(8_123) 0
x(8_124) 0
x(8_125) 0
x(8_126) 0
x(8_127) 0
x(8_128) 0
x(8_129) 0
x(8_130) 0
x(8_131) 0
x(8_132) 0
x(8_133) 0
x(8_134) 0
x(8_135) 0
x(8_136) 0
x(8_137) 0
x(9_138) 0
x(9_139) 0
x(9_140) 0
x(9_141) 0
x(9_142) 0
x(9_143) 0
x(9_144) 0
x(9_145) 1
x(9_146) 0
x(9_147) 0
x(9_148) 0
x(9_149) 0
x(9_150) 0
x(9_151) 0
x(9_152) 0
x(9_153) 0
x(9_154) 0
x(9_155) 0
x(9_156) 0
x(9_157) 0
x(10_158) 0
x(10_159) 0
x(10_160) 0
x(10_161) 0
x(10_162) 0
x(10_163) 0
x(10_164) 0
x(10_165) 0
x(10_166) 0
x(10_167) 0
x(10_168) 0
x(10_169) 0
x(10_170) 0
x(10_171) 1
x(10_172) 0
x(10_173) 0
x(10_174) 0
x(10_175) 0
x(11_176) 0
x(11_177) 0
x(11_178) 0
x(11_179) 0
x(11_180) 0
x(11_181) 0
x(11_182) 0
x(11_183) 0
x(11_184) 0
x(11_185) 0
x(11_186) 0
x(11_187) 1
x(11_188) 0
x(11_189) 0
x(11_190) 0
x(12_191) 0
x(12_192) 0
x(12_193) 0
x(12_194) 0
x(12_195) 0
x(12_196) 0
x(12_197) 0
x(12_198) 0
x(12_199) 1
x(12_200) 0
x(12_201) 0
x(12_202) 0
x(12_203) 0
x(12_204) 0
x(12_205) 0
x(12_206) 0
x(13_207) 0
x(13_208) 0
x(13_209) 0
x(13_210) 0
x(13_211) 0
x(13_212) 0
x(13_213) 0
x(13_214) 0
x(13_215) 0
x(13_216) 1
x(13_217) 0
x(13_218) 0
x(13_219) 0
x(13_220) 0
x(13_221) 0
x(14_222) 0
x(14_223) 0
x(14_224) 0
x(14_225) 0
x(14_226) 0
x(14_227) 0
x(14_228) 0
x(14_229) 0
x(14_230) 0
x(14_231) 0
x(14_232) 0
x(14_233) 0
x(14_234) 0
x(14_235) 0
x(14_236) 0
x(14_237) 0
x(14_238) 1
x(14_239) 0
x(14_240) 0
x(14_241) 0
x(15_242) 0
x(15_243) 0
x(15_244) 0
x(15_245) 0
x(15_246) 0
x(15_247) 0
x(15_248) 1
x(15_249) 0
x(15_250) 0
x(15_251) 0
x(15_252) 0
x(15_253) 0
x(15_254) 0
x(15_255) 0
x(16_256) 1
x(16_257) 0
x(16_258) 0
x(16_259) 0
x(16_260) 0
x(16_261) 0
x(16_262) 0
x(16_263) 0
x(16_264) 0
x(16_265) 0
x(16_266) 0
x(16_267) 0
x(16_268) 0
x(16_269) 0
x(16_270) 0
x(17_271) 0
x(17_272) 0
x(17_273) 0
x(17_274) 0
x(17_275) 1
x(17_276) 0
x(17_277) 0
x(17_278) 0
x(17_279) 0
x(17_280) 0
x(17_281) 0
x(17_282) 0
x(18_283) 0
x(18_284) 0
x(18_285) 1
x(18_286) 0
x(18_287) 0
x(18_288) 0
x(18_289) 0
x(18_290) 0
x(18_291) 0
x(18_292) 0
x(18_293) 0
x(18_294) 0
x(18_295) 0
x(18_296) 0
x(19_297) 0
x(19_298) 0
x(19_299) 0
x(19_300) 0
x(19_301) 0
x(19_302) 1
x(19_303) 0
x(19_304) 0
x(19_305) 0
x(19_306) 0
x(19_307) 0
x(20_308) 0
x(20_309) 0
x(20_310) 0
x(20_311) 0
x(20_312) 0
x(20_313) 0
x(20_314) 0
x(20_315) 0
x(20_316) 0
x(20_317) 0
x(20_318) 1
x(20_319) 0
x(20_320) 0
x(20_321) 0
x(20_322) 0
x(20_323) 0
x(21_324) 0
x(21_325) 0
x(21_326) 0
x(21_327) 0
x(21_328) 0
x(21_329) 0
x(21_330) 0
x(21_331) 0
x(21_332) 0
x(21_333) 0
x(21_334) 0
x(21_335) 1
x(21_336) 0
x(21_337) 0
x(21_338) 0
x(22_339) 0
x(22_340) 0
x(22_341) 0
x(22_342) 0
x(22_343) 0
x(22_344) 0
x(22_345) 0
x(22_346) 0
x(22_347) 0
x(22_348) 0
x(22_349) 0
x(22_350) 1
x(22_351) 0
x(22_352) 0
x(22_353) 0
x(22_354) 0
x(23_355) 0
x(23_356) 0
x(23_357) 0
x(23_358) 1
x(23_359) 0
x(23_360) 0
x(23_361) 0
x(23_362) 0
x(23_363) 0
x(23_364) 0
x(23_365) 0
x(23_366) 0
x(23_367) 0
x(23_368) 0
x(23_369) 0
x(23_370) 0
x(23_371) 0
x(23_372) 0
x(24_373) 0
x(24_374) 0
x(24_375) 0
x(24_376) 0
x(24_377) 0
x(24_378) 0
x(24_379) 1
x(24_380) 0
x(24_381) 0
x(24_382) 0
x(24_383) 0
x(25_384) 0
x(25_385) 0
x(25_386) 0
x(25_387) 1
x(25_388) 0
x(25_389) 0
x(25_390) 0
x(25_391) 0
x(25_392) 0
x(25_393) 0
x(25_394) 0
x(25_395) 0
x(25_396) 0
x(25_397) 0
x(26_398) 0
x(26_399) 0
x(26_400) 0
x(26_401) 0
x(26_402) 0
x(26_403) 0
x(26_404) 0
x(26_405) 1
x(26_406) 0
x(26_407) 0
x(27_408) 0
x(27_409) 0
x(27_410) 0
x(27_411) 0
x(27_412) 0
x(27_413) 1
x(27_414) 0
x(27_415) 0
x(27_416) 0
x(27_417) 0
x(28_418) 0
x(28_419) 0
x(28_420) 0
x(28_421) 0
x(28_422) 0
x(28_423) 0
x(28_424) 0
x(28_425) 0
x(28_426) 0
x(28_427) 0
x(28_428) 0
x(28_429) 0
x(28_430) 0
x(28_431) 0
x(28_432) 1
x(28_433) 0
x(28_434) 0
x(28_435) 0
x(28_436) 0
x(29_437) 0
x(29_438) 0
x(29_439) 0
x(29_440) 0
x(29_441) 0
x(29_442) 0
x(29_443) 0
x(29_444) 0
x(29_445) 0
x(29_446) 0
x(29_447) 0
x(29_448) 0
x(29_449) 0
x(29_450) 0
x(29_451) 0
x(29_452) 0
x(29_453) 0
x(29_454) 1
x(30_455) 0
x(30_456) 0
x(30_457) 1
x(30_458) 0
x(30_459) 0
x(30_460) 0
x(30_461) 0
x(30_462) 0
x(30_463) 0
x(30_464) 0
x(30_465) 0
x(31_466) 0
x(31_467) 0
x(31_468) 0
x(31_469) 0
x(31_470) 0
x(31_471) 0
x(31_472) 0
x(31_473) 0
x(31_474) 0
x(31_475) 0
x(31_476) 0
x(31_477) 0
x(31_478) 0
x(31_479) 1
x(31_480) 0
x(31_481) 0
x(31_482) 0
x(31_483) 0
x(32_484) 1
x(32_485) 0
x(32_486) 0
x(32_487) 0
x(32_488) 0
x(32_489) 0
x(32_490) 0
x(32_491) 0
x(32_492) 0
x(32_493) 0
x(32_494) 0
x(32_495) 0
x(33_496) 0
x(33_497) 1
x(33_498) 0
x(33_499) 0
x(33_500) 0
x(33_501) 0
x(33_502) 0
x(33_503) 0
x(33_504) 0
x(33_505) 0
x(33_506) 0
x(33_507) 0
x(33_508) 0
x(33_509) 0
x(33_510) 0
x(33_511) 0
x(34_512) 0
x(34_513) 0
x(34_514) 0
x(34_515) 0
x(34_516) 0
x(34_517) 0
x(34_518) 0
x(34_519) 1
x(34_520) 0
x(34_521) 0
x(34_522) 0
x(34_523) 0
x(34_524) 0
x(34_525) 0
x(34_526) 0
x(35_527) 0
x(35_528) 0
x(35_529) 0
x(35_530) 0
x(35_531) 0
x(35_532) 0
x(35_533) 1
x(35_534) 0
x(35_535) 0
x(35_536) 0
x(35_537) 0
x(35_538) 0
x(35_539) 0
x(35_540) 0
x(36_541) 0
x(36_542) 0
x(36_543) 0
x(36_544) 0
x(36_545) 0
x(36_546) 0
x(36_547) 1
x(36_548) 0
x(36_549) 0
x(36_550) 0
x(36_551) 0
x(36_552) 0
x(36_553) 0
x(36_554) 0
x(36_555) 0
x(36_556) 0
x(37_557) 0
x(37_558) 0
x(37_559) 1
x(37_560) 0
x(37_561) 0
x(37_562) 0
x(37_563) 0
x(37_564) 0
x(37_565) 0
x(37_566) 0
x(37_567) 0
x(37_568) 0
x(37_569) 0
x(37_570) 0
x(37_571) 0
x(37_572) 0
x(37_573) 0
x(37_574) 0
x(38_575) 0
x(38_576) 0
x(38_577) 0
x(38_578) 0
x(38_579) 0
x(38_580) 0
x(38_581) 1
x(38_582) 0
x(38_583) 0
x(38_584) 0
x(38_585) 0
x(39_586) 0
x(39_587) 0
x(39_588) 0
x(39_589) 0
x(39_590) 0
x(39_591) 0
x(39_592) 0
x(39_593) 0
x(39_594) 0
x(39_595) 1
x(39_596) 0
x(39_597) 0
x(40_598) 0
x(40_599) 0
x(40_600) 0
x(40_601) 0
x(40_602) 0
x(40_603) 0
x(40_604) 0
x(40_605) 0
x(40_606) 0
x(40_607) 0
x(40_608) 0
x(40_609) 0
x(40_610) 0
x(40_611) 0
x(40_612) 0
x(40_613) 0
x(40_614) 0
x(40_615) 1
x(40_616) 0
x(41_617) 0
x(41_618) 1
x(41_619) 0
x(41_620) 0
x(41_621) 0
x(41_622) 0
x(41_623) 0
x(41_624) 0
x(41_625) 0
x(41_626) 0
x(41_627) 0
x(41_628) 0
x(41_629) 0
x(41_630) 0
x(41_631) 0
x(41_632) 0
x(41_633) 0
x(41_634) 0
x(42_635) 0
x(42_636) 1
x(42_637) 0
x(42_638) 0
x(42_639) 0
x(42_640) 0
x(42_641) 0
x(42_642) 0
x(42_643) 0
x(42_644) 0
x(42_645) 0
x(42_646) 0
x(42_647) 0
x(42_648) 0
x(42_649) 0
x(42_650) 0
x(42_651) 0
x(43_652) 0
x(43_653) 0
x(43_654) 0
x(43_655) 0
x(43_656) 0
x(43_657) 0
x(43_658) 0
x(43_659) 0
x(43_660) 0
x(43_661) 0
x(43_662) 0
x(43_663) 0
x(43_664) 0
x(43_665) 0
x(43_666) 1
x(43_667) 0
x(43_668) 0
x(43_669) 0
x(43_670) 0
x(43_671) 0
x(44_672) 0
x(44_673) 0
x(44_674) 0
x(44_675) 0
x(44_676) 0
x(44_677) 0
x(44_678) 0
x(44_679) 0
x(44_680) 0
x(44_681) 0
x(44_682) 0
x(44_683) 0
x(44_684) 1
x(45_685) 0
x(45_686) 0
x(45_687) 0
x(45_688) 0
x(45_689) 0
x(45_690) 0
x(45_691) 0
x(45_692) 0
x(45_693) 0
x(45_694) 0
x(45_695) 0
x(45_696) 0
x(45_697) 0
x(45_698) 0
x(45_699) 1
x(45_700) 0
x(45_701) 0
x(46_702) 0
x(46_703) 0
x(46_704) 0
x(46_705) 0
x(46_706) 0
x(46_707) 0
x(46_708) 0
x(46_709) 0
x(46_710) 0
x(46_711) 1
x(46_712) 0
x(47_713) 0
x(47_714) 0
x(47_715) 0
x(47_716) 0
x(47_717) 0
x(47_718) 0
x(47_719) 0
x(47_720) 0
x(47_721) 0
x(47_722) 0
x(47_723) 0
x(47_724) 0
x(47_725) 1
x(47_726) 0
x(47_727) 0
x(47_728) 0
x(47_729) 0
x(48_730) 0
x(48_731) 0
x(48_732) 1
x(48_733) 0
x(48_734) 0
x(48_735) 0
x(48_736) 0
x(48_737) 0
x(48_738) 0
x(48_739) 0
x(48_740) 0
x(48_741) 0
x(48_742) 0
x(48_743) 0
x(48_744) 0
x(48_745) 0
x(48_746) 0
x(48_747) 0
x(48_748) 0
x(49_749) 1
x(49_750) 0
x(49_751) 0
x(49_752) 0
x(49_753) 0
x(49_754) 0
x(49_755) 0
x(49_756) 0
x(49_757) 0
x(49_758) 0
x(49_759) 0
x(50_760) 0
x(50_761) 0
x(50_762) 0
x(50_763) 0
x(50_764) 0
x(50_765) 0
x(50_766) 0
x(50_767) 0
x(50_768) 0
x(50_769) 0
x(50_770) 0
x(50_771) 0
x(50_772) 0
x(50_773) 0
x(50_774) 1
x(51_775) 0
x(51_776) 0
x(51_777) 0
x(51_778) 0
x(51_779) 0
x(51_780) 0
x(51_781) 1
x(51_782) 0
x(51_783) 0
x(51_784) 0
x(51_785) 0
x(51_786) 0
x(51_787) 0
x(51_788) 0
x(51_789) 0
x(51_790) 0
x(51_791) 0
x(51_792) 0
x(51_793) 0
x(52_794) 0
x(52_795) 0
x(52_796) 0
x(52_797) 0
x(52_798) 0
x(52_799) 0
x(52_800) 1
x(52_801) 0
x(52_802) 0
x(52_803) 0
x(52_804) 0
x(52_805) 0
x(53_806) 0
x(53_807) 0
x(53_808) 0
x(53_809) 0
x(53_810) 0
x(53_811) 0
x(53_812) 0
x(53_813) 0
x(53_814) 0
x(53_815) 0
x(53_816) 0
x(53_817) 0
x(53_818) 1
x(53_819) 0
x(53_820) 0
x(53_821) 0
x(53_822) 0
x(53_823) 0
x(54_824) 0
x(54_825) 0
x(54_826) 0
x(54_827) 0
x(54_828) 0
x(54_829) 0
x(54_830) 1
x(54_831) 0
x(54_832) 0
x(54_833) 0
x(54_834) 0
x(55_835) 0
x(55_836) 0
x(55_837) 0
x(55_838) 1
x(55_839) 0
x(55_840) 0
x(55_841) 0
x(55_842) 0
x(55_843) 0
x(55_844) 0
x(55_845) 0
x(55_846) 0
x(55_847) 0
x(55_848) 0
x(55_849) 0
x(55_850) 0
x(55_851) 0
x(55_852) 0
x(55_853) 0
x(56_854) 0
x(56_855) 0
x(56_856) 0
x(56_857) 0
x(56_858) 0
x(56_859) 0
x(56_860) 0
x(56_861) 0
x(56_862) 1
x(56_863) 0
x(56_864) 0
x(56_865) 0
x(56_866) 0
x(56_867) 0
x(57_868) 0
x(57_869) 0
x(57_870) 0
x(57_871) 0
x(57_872) 0
x(57_873) 0
x(57_874) 0
x(57_875) 0
x(57_876) 1
x(57_877) 0
x(58_878) 0
x(58_879) 0
x(58_880) 0
x(58_881) 1
x(58_882) 0
x(58_883) 0
x(58_884) 0
x(58_885) 0
x(58_886) 0
x(58_887) 0
x(58_888) 0
x(59_889) 0
x(59_890) 0
x(59_891) 0
x(59_892) 0
x(59_893) 0
x(59_894) 0
x(59_895) 0
x(59_896) 0
x(59_897) 0
x(59_898) 1
x(59_899) 0
x(59_900) 0
x(59_901) 0
x(59_902) 0
x(59_903) 0
x(59_904) 0
x(59_905) 0
x(60_906) 0
x(60_907) 0
x(60_908) 0
x(60_909) 0
x(60_910) 0
x(60_911) 0
x(60_912) 0
x(60_913) 0
x(60_914) 0
x(60_915) 0
x(60_916) 0
x(60_917) 0
x(60_918) 0
x(60_919) 0
x(60_920) 1
x(60_921) 0
x(60_922) 0
x(60_923) 0
x(60_924) 0
x(61_925) 0
x(61_926) 0
x(61_927) 0
x(61_928) 0
x(61_929) 0
x(61_930) 0
x(61_931) 0
x(61_932) 0
x(61_933) 0
x(61_934) 0
x(61_935) 0
x(61_936) 1
x(61_937) 0
x(61_938) 0
x(61_939) 0
x(61_940) 0
x(61_941) 0
x(61_942) 0
x(62_943) 0
x(62_944) 0
x(62_945) 0
x(62_946) 0
x(62_947) 0
x(62_948) 0
x(62_949) 0
x(62_950) 0
x(62_951) 0
x(62_952) 0
x(62_953) 0
x(62_954) 0
x(62_955) 0
x(62_956) 1
x(62_957) 0
x(62_958) 0
x(62_959) 0
x(62_960) 0
x(62_961) 0
x(63_962) 0
x(63_963) 0
x(63_964) 0
x(63_965) 1
x(63_966) 0
x(63_967) 0
x(63_968) 0
x(63_969) 0
x(63_970) 0
x(63_971) 0
x(63_972) 0
x(63_973) 0
x(64_974) 0
x(64_975) 0
x(64_976) 0
x(64_977) 0
x(64_978) 0
x(64_979) 1
x(64_980) 0
x(64_981) 0
x(64_982) 0
x(64_983) 0
x(64_984) 0
x(64_985) 0
x(64_986) 0
x(64_987) 0
x(64_988) 0
x(64_989) 0
x(64_990) 0
x(64_991) 0
x(64_992) 0
x(65_993) 0
x(65_994) 0
x(65_995) 0
x(65_996) 0
x(65_997) 0
x(65_998) 0
x(65_999) 1
x(65_1000) 0
x(65_1001) 0
x(65_1002) 0
x(65_1003) 0
x(65_1004) 0
x(65_1005) 0
x(65_1006) 0
x(66_1007) 0
x(66_1008) 0
x(66_1009) 0
x(66_1010) 1
x(66_1011) 0
x(66_1012) 0
x(66_1013) 0
x(66_1014) 0
x(66_1015) 0
x(66_1016) 0
x(66_1017) 0
x(66_1018) 0
x(66_1019) 0
x(66_1020) 0
x(66_1021) 0
x(66_1022) 0
x(66_1023) 0
x(66_1024) 0
x(66_1025) 0
x(67_1026) 0
x(67_1027) 0
x(67_1028) 0
x(67_1029) 0
x(67_1030) 0
x(67_1031) 0
x(67_1032) 1
x(67_1033) 0
x(67_1034) 0
x(67_1035) 0
x(67_1036) 0
x(67_1037) 0
x(67_1038) 0
x(67_1039) 0
x(68_1040) 0
x(68_1041) 0
x(68_1042) 0
x(68_1043) 0
x(68_1044) 0
x(68_1045) 0
x(68_1046) 0
x(68_1047) 0
x(68_1048) 0
x(68_1049) 0
x(68_1050) 1
x(68_1051) 0
x(68_1052) 0
x(68_1053) 0
x(68_1054) 0
x(68_1055) 0
x(68_1056) 0
x(68_1057) 0
x(69_1058) 0
x(69_1059) 0
x(69_1060) 0
x(69_1061) 0
x(69_1062) 0
x(69_1063) 0
x(69_1064) 0
x(69_1065) 1
x(69_1066) 0
x(69_1067) 0
x(69_1068) 0
x(69_1069) 0
x(69_1070) 0
x(69_1071) 0
x(69_1072) 0
x(69_1073) 0
x(69_1074) 0
x(69_1075) 0
x(70_1076) 0
x(70_1077) 0
x(70_1078) 0
x(70_1079) 0
x(70_1080) 0
x(70_1081) 0
x(70_1082) 0
x(70_1083) 0
x(70_1084) 0
x(70_1085) 0
x(70_1086) 0
x(70_1087) 0
x(70_1088) 0
x(70_1089) 0
x(70_1090) 0
x(70_1091) 1
x(70_1092) 0
x(71_1093) 0
x(71_1094) 0
x(71_1095) 0
x(71_1096) 0
x(71_1097) 0
x(71_1098) 0
x(71_1099) 0
x(71_1100) 0
x(71_1101) 1
x(71_1102) 0
x(71_1103) 0
x(71_1104) 0
x(72_1105) 0
x(72_1106) 0
x(72_1107) 0
x(72_1108) 0
x(72_1109) 1
x(72_1110) 0
x(72_1111) 0
x(72_1112) 0
x(72_1113) 0
x(72_1114) 0
x(72_1115) 0
x(72_1116) 0
x(73_1117) 0
x(73_1118) 0
x(73_1119) 0
x(73_1120) 0
x(73_1121) 0
x(73_1122) 0
x(73_1123) 0
x(73_1124) 1
x(73_1125) 0
x(73_1126) 0
x(73_1127) 0
x(73_1128) 0
x(74_1129) 0
x(74_1130) 0
x(74_1131) 0
x(74_1132) 0
x(74_1133) 0
x(74_1134) 0
x(74_1135) 0
x(74_1136) 0
x(74_1137) 0
x(74_1138) 0
x(74_1139) 0
x(74_1140) 0
x(74_1141) 0
x(74_1142) 0
x(74_1143) 0
x(74_1144) 1
x(74_1145) 0
x_1_0 3.1872739810822532e+02
s_1_0 0
z_1_0 9.9681272601891768e-01
x_1_1 3.1890033421480621e+02
s_1_1 0
z_1_1 0.996810996657852
x_1_2 3.1984522000141442e+02
s_1_2 0
z_1_2 9.9680154779998587e-01
x_1_3 3.1907238774106372e+02
s_1_3 0
z_1_3 9.9680927612258929e-01
x_1_4 0
s_1_4 1.4399330794258276e+00
z_1_4 1
x_1_5 3.2073404781712452e+02
s_1_5 0
z_1_5 9.9679265952182872e-01
x_1_6 0
s_1_6 1.5502610574476421e+00
z_1_6 1
x_1_7 0
s_1_7 1.0762047006282955e+00
z_1_7 1
x_1_8 0
s_1_8 1.2785259504453279e+00
z_1_8 1
x_1_9 3.2122791360132396e+02
s_1_9 0
z_1_9 9.9678772086398670e-01
x_1_10 0
s_1_10 1.4575198974926025e+00
z_1_10 1
x_1_11 0
s_1_11 1.7506795020308346e+00
z_1_11 1
x_1_12 0
s_1_12 1.7410129931813572e+00
z_1_12 1
x_1_13 3.2018801218597218e+02
s_1_13 0
z_1_13 9.9679811987814027e-01
x_1_14 0
s_1_14 1.4556626701960340e+00
z_1_14 1
x_1_15 3.2196217478625476e+02
s_1_15 0
z_1_15 9.9678037825213739e-01
x_1_16 320.436057894447
s_1_16 0
z_1_16 9.9679563942105553e-01
x_1_17 3.1871342789195478e+02
s_1_17 0
z_1_17 9.9681286572108041e-01
x_1_18 3.2128896733932197e+02
s_1_18 0
z_1_18 9.9678711032660672e-01
x_1_19 3.1940003181539942e+02
s_1_19 0
z_1_19 0.996805999681846
x_1_20 0
s_1_20 1.5414498744939920e+00
z_1_20 1
x_1_21 4.9999167758352822e+04
s_1_21 5.0000832241647178e+04
z_1_21 5.0000832241647175e-01
x_1_22 320.147878233809
s_1_22 0
z_1_22 9.9679852121766188e-01
x_1_23 318.811806964688
s_1_23 0
z_1_23 9.9681188193035308e-01
x_1_24 3.1813445757888258e+02
s_1_24 0
z_1_24 9.9681865542421111e-01
x_1_25 3.1998076942237094e+02
s_1_25 0
z_1_25 9.9680019230577632e-01
x_1_26 3.2151539671840146e+02
s_1_26 0
z_1_26 0.996784846032816
x_1_27 0
s_1_27 1.1992215834325179e+00
z_1_27 1
x_1_28 3.2055107499659061e+02
s_1_28 0
z_1_28 9.9679448925003411e-01
x_1_29 0
s_1_29 1.7581516443606233e+00
z_1_29 1
x_1_30 3.1998778568697162e+02
s_1_30 0
z_1_30 9.9680012214313030e-01
x_1_31 3.1881517502573843e+02
s_1_31 0
z_1_31 9.9681184824974267e-01
x_1_32 3.1826034504594281e+02
s_1_32 0
z_1_32 9.9681739654954060e-01
x_1_33 4.9999063852360872e+04
s_1_33 5.0000936147639135e+04
z_1_33 5.0000936147639130e-01
x_1_34 320.212475315202
s_1_34 0
z_1_34 0.996797875246848
x_1_35 0
s_1_35 9.8252904019318521e-01
z_1_35 1
x_1_36 0
s_1_36 1.0136400390183553e+00
z_1_36 1
x_1_37 0
s_1_37 9.3773604730813531e-01
z_1_37 1
x_1_38 0
s_1_38 2.0097000758396462e+00
z_1_38 1
x_1_39 0
s_1_39 1.2683085613061849e+00
z_1_39 1
x_1_40 0
s_1_40 2.1150458336196607e+00
z_1_40 1
x_1_41 0
s_1_41 1.7107908835168928e+00
z_1_41 1
x_1_42 0
s_1_42 1.4418787177419290e+00
z_1_42 1
x_1_43 4.9999102812980193e+04
s_1_43 5.0000897187019815e+04
z_1_43 5.0000897187019810e-01
x_1_44 0
s_1_44 1.4870160692371428e+00
z_1_44 1
x_1_45 0
s_1_45 1.3667230077553540e+00
z_1_45 1
x_1_46 3.1782001337129623e+02
s_1_46 0
z_1_46 0.996821799866287
x_1_47 0
s_1_47 1.4953930494084489e+00
z_1_47 1
x_1_48 0
s_1_48 1.8722724685212597e+00
z_1_48 1
x_1_49 0
s_1_49 1.4694264408753952e+00
z_1_49 1
x_1_50 3.2075446535740048e+02
s_1_50 0
z_1_50 0.996792455346426
x_1_51 0
s_1_51 1.55596967600286
z_1_51 1
x_1_52 0
s_1_52 1.6250343788451573e+00
z_1_52 1
x_1_53 3.1819228577429021e+02
s_1_53 0
z_1_53 9.9681807714225712e-01
x_1_54 3.1977339669037610e+02
s_1_54 0
z_1_54 9.9680226603309618e-01
x_1_55 3.2069192462648789e+02
s_1_55 0
z_1_55 9.9679308075373518e-01
x_1_56 0
s_1_56 5.3918028247426264e-01
z_1_56 1
x_1_57 3.1719392045120185e+02
s_1_57 0
z_1_57 9.9682806079548791e-01
x_1_58 0
s_1_58 1.4494891621870920e+00
z_1_58 1
x_1_59 3.1737332097068429e+02
s_1_59 0
z_1_59 9.9682626679029318e-01
x_1_60 0
s_1_60 1.1949759826238733e+00
z_1_60 1
x_1_61 3.1828369165025651e+02
s_1_61 0
z_1_61 9.9681716308349744e-01
x_1_62 3.1731672228872776e+02
s_1_62 0
z_1_62 9.9682683277711270e-01
x_1_63 4.9999154654104059e+04
s_1_63 5.0000845345895941e+04
z_1_63 5.0000845345895939e-01
x_1_64 0
s_1_64 1.7972814962267876e+00
z_1_64 1
x_1_65 3.1780182695388794e+02
s_1_65 0
z_1_65 9.9682198173046110e-01
x_1_66 0
s_1_66 1.6602069778018631e+00
z_1_66 1
x_1_67 0
s_1_67 1.4001384056755342e+00
z_1_67 1
x_1_68 0
s_1_68 1.7027313947983203e+00
z_1_68 1
x_1_69 3.2002943923058046e+02
s_1_69 0
z_1_69 9.9679970560769426e-01
x_1_70 3.1858851037453860e+02
s_1_70 0
z_1_70 9.9681411489625460e-01
x_1_71 0
s_1_71 8.4587490966077894e-01
z_1_71 1
x_1_72 0
s_1_72 2.0028929500404047e+00
z_1_72 1
x_1_73 0
s_1_73 2.1567571712657809e+00
z_1_73 1
x_1_74 0
s_1_74 1.4924443322233856e+00
z_1_74 1
x_1_75 3.1773785692825913e+02
s_1_75 0
z_1_75 9.9682262143071743e-01
x_1_76 3.1720267692719062e+02
s_1_76 0
z_1_76 0.996827973230728
x_1_77 0
s_1_77 7.6045112079009414e-01
z_1_77 1
x_1_78 3.2001437764987350e+02
s_1_78 0
z_1_78 9.9679985622350131e-01
x_1_79 3.1925608517415822e+02
s_1_79 0
z_1_79 9.9680743914825842e-01
x_1_80 0
s_1_80 1.4810151296551339e+00
z_1_80 1
x_1_81 3.1735864365566522e+02
s_1_81 0
z_1_81 9.9682641356344337e-01
x_1_82 0
s_1_82 1.5026739824534161e+00
z_1_82 1
x_1_83 0
s_1_83 1.5078045291011222e+00
z_1_83 1
x_1_84 4.9999426536636805e+04
s_1_84 5.0000573463363195e+04
z_1_84 0.500005734633632
x_1_85 0
s_1_85 1.5001155427889898e+00
z_1_85 1
x_1_86 3.2063683269784087e+02
s_1_86 0
z_1_86 9.9679363167302160e-01
x_1_87 4.9999402644554415e+04
s_1_87 5.0000597355445585e+04
z_1_87 5.0000597355445586e-01
x_1_88 0
s_1_88 1.5799785381532274e+00
z_1_88 1
x_1_89 0
s_1_89 1.0191209470503964e+00
z_1_89 1
x_1_90 0
s_1_90 1.4269803090428468e+00
z_1_90 1
x_1_91 0
s_1_91 1.2490049089683453e+00
z_1_91 1
x_1_92 3.1909566356427968e+02
s_1_92 0
z_1_92 9.9680904336435716e-01
x_1_93 3.1022404400819505e+02
s_1_93 0
z_1_93 9.9689775955991811e-01
x_1_94 3.1773537367023528e+02
s_1_94 0
z_1_94 9.9682264626329764e-01
x_1_95 3.1879000165499747e+02
s_1_95 0
z_1_95 0.99681209998345
x_1_96 3.1741115147527307e+02
s_1_96 0
z_1_96 9.9682588848524734e-01
x_1_97 3.1748276217468083e+02
s_1_97 0
z_1_97 9.9682517237825319e-01
x_1_98 3.2124932640790939e+02
s_1_98 0
z_1_98 9.9678750673592087e-01
x_1_99 0
s_1_99 1.0443688486848259e+00
z_1_99 1
x_1_100 0
s_1_100 1.8660870685998816e+00
z_1_100 1
x_1_101 3.1863094132392143e+02
s_1_101 0
z_1_101 9.9681369058676073e-01
x_1_102 3.2114444460812956e+02
s_1_102 0
z_1_102 9.9678855555391876e-01
x_1_103 0
s_1_103 1.6237347145215608e+00
z_1_103 1
x_1_104 0
s_1_104 1.1981454836786725e+00
z_1_104 1
x_1_105 3.2081623442261480e+02
s_1_105 0
z_1_105 9.9679183765577384e-01
x_1_106 0
s_1_106 1.4310898941475898e+00
z_1_106 1
x_1_107 3.1990053625266592e+02
s_1_107 0
z_1_107 9.9680099463747340e-01
x_1_108 3.2007141532003880e+02
s_1_108 0
z_1_108 9.9679928584679967e-01
x_1_109 0
s_1_109 1.8626401083893143e+00
z_1_109 1
x_1_110 318.857149541378
s_1_110 0
z_1_110 9.9681142850458615e-01
x_1_111 0
s_1_111 1.9589157393456844e+00
z_1_111 1
x_1_112 3.1724021208146587e+02
s_1_112 0
z_1_112 9.9682759787918540e-01
x_1_113 0
s_1_113 1.4966266235860530e+00
z_1_113 1
x_1_114 0
s_1_114 1.0412672598031349e+00
z_1_114 1
x_1_115 0
s_1_115 2.0771470819163369e+00
z_1_115 1
x_1_116 4.9999341729101950e+04
s_1_116 5.0000658270898042e+04
z_1_116 5.0000658270898046e-01
x_1_117 0
s_1_117 1.7241387341637164e+00
z_1_117 1
x_1_118 0
s_1_118 1.2881027038092725e+00
z_1_118 1
x_1_119 4.9999617851111936e+04
s_1_119 5.0000382148888064e+04
z_1_119 5.0000382148888067e-01
x_1_120 3.1934886089526117e+02
s_1_120 0
z_1_120 9.9680651139104737e-01
x_1_121 3.2098930864874274e+02
s_1_121 0
z_1_121 9.9679010691351255e-01
x_1_122 3.1726878778683022e+02
s_1_122 0
z_1_122 9.9682731212213171e-01
x_1_123 0
s_1_123 1.55232336797053
z_1_123 1
x_1_124 3.1793273966714332e+02
s_1_124 0
z_1_124 9.9682067260332863e-01
x_1_125 3.2090765942912549e+02
s_1_125 0
z_1_125 9.9679092340570874e-01
x_1_126 4.9999550218076896e+04
s_1_126 5.0000449781923104e+04
z_1_126 5.0000449781923106e-01
x_1_127 3.1680398551374674e+02
s_1_127 0
z_1_127 9.9683196014486253e-01
x_1_128 0
s_1_128 1.3316868672482087e+00
z_1_128 1
x_1_129 3.1933403870626353e+02
s_1_129 0
z_1_129 9.9680665961293735e-01
x_1_130 0
s_1_130 1.01405518775573
z_1_130 1
x_1_131 3.1897196987153438e+02
s_1_131 0
z_1_131 9.9681028030128460e-01
x_1_132 3.2011227579323167e+02
s_1_132 0
z_1_132 9.9679887724206773e-01
x_1_133 3.2128273961320519e+02
s_1_133 0
z_1_133 0.996787172603868
x_1_134 0
s_1_134 1.9049945430597290e+00
z_1_134 1
x_1_135 0
s_1_135 2.0083391149237286e+00
z_1_135 1
x_1_136 3.2167215987294912e+02
s_1_136 0
z_1_136 9.9678327840127057e-01
x_1_137 3.1817720288783312e+02
s_1_137 0
z_1_137 9.9681822797112163e-01
x_1_138 3.1731374060828239e+02
s_1_138 0
z_1_138 9.9682686259391717e-01
x_1_139 0
s_1_139 1.8179731138516217e+00
z_1_139 1
x_1_140 0
s_1_140 1.8369188011856750e+00
z_1_140 1
x_1_141 3.2110394309158437e+02
s_1_141 0
z_1_141 9.9678896056908417e-01
x_1_142 0
s_1_142 9.5333277637837455e-01
z_1_142 1
x_1_143 3.2142857159208506e+02
s_1_143 0
z_1_143 9.9678571428407914e-01
x_1_144 0
s_1_144 1.1564437479828484e+00
z_1_144 1
x_1_145 3.1962768245162442e+02
s_1_145 0
z_1_145 9.9680372317548371e-01
x_1_146 0
s_1_146 1.1778279776335694e+00
z_1_146 1
x_1_147 3.1751797387748957e+02
s_1_147 0
z_1_147 9.9682482026122510e-01
x_1_148 3.2123153366707265e+02
s_1_148 0
z_1_148 9.9678768466332923e-01
x_1_149 0
s_1_149 0.873781615489861
z_1_149 1
x_1_150 4.9999019075323944e+04
s_1_150 5.0000980924676056e+04
z_1_150 5.0000980924676053e-01
x_1_151 3.2073588828966604e+02
s_1_151 0
z_1_151 9.9679264111710331e-01
x_1_152 3.1672817291949468e+02
s_1_152 0
z_1_152 9.9683271827080511e-01
x_1_153 3.1822049702052027e+02
s_1_153 0
z_1_153 9.9681779502979473e-01
x_1_154 0
s_1_154 1.8092056924942881e+00
z_1_154 1
x_1_155 0
s_1_155 1.3121340047800913e+00
z_1_155 1
x_1_156 4.9999037498693586e+04
s_1_156 5.0000962501306407e+04
z_1_156 5.0000962501306412e-01
x_1_157 0
s_1_157 1.1103956761653535e+00
z_1_157 1
x_1_158 0
s_1_158 7.8253995979321189e-01
z_1_158 1
x_1_159 0
s_1_159 2.1723799273895565e+00
z_1_159 1
x_2_0 1.4970627939633935e+05
